100
2448
4
38
87
62
31
0 6
0 7
0 11
0 12
0 14
0 16
0 17
0 18
0 20
0 21
0 22
0 23
0 26
0 27
0 28
0 29
0 30
0 31
0 35
0 37
0 38
0 46
0 48
0 50
0 53
0 54
0 57
0 60
0 62
0 63
0 68
0 69
0 70
0 71
0 76
0 77
0 78
0 79
0 81
0 83
0 90
0 93
0 94
0 96
0 99
1 4
1 6
1 7
1 8
1 14
1 15
1 16
1 18
1 19
1 20
1 21
1 24
1 25
1 27
1 28
1 29
1 31
1 32
1 33
1 36
1 37
1 39
1 41
1 44
1 49
1 52
1 56
1 57
1 59
1 60
1 63
1 64
1 69
1 70
1 71
1 73
1 74
1 76
1 79
1 85
1 86
1 87
1 88
1 89
1 90
1 94
1 95
1 97
1 98
2 5
2 6
2 8
2 10
2 11
2 12
2 13
2 14
2 15
2 17
2 19
2 20
2 21
2 22
2 23
2 27
2 28
2 29
2 31
2 32
2 33
2 34
2 36
2 37
2 38
2 40
2 44
2 45
2 47
2 48
2 49
2 50
2 51
2 52
2 55
2 57
2 58
2 59
2 67
2 72
2 73
2 77
2 78
2 79
2 81
2 83
2 85
2 89
2 90
2 91
2 95
2 96
2 97
3 5
3 8
3 10
3 11
3 12
3 14
3 15
3 16
3 17
3 18
3 23
3 26
3 28
3 29
3 30
3 31
3 35
3 37
3 39
3 42
3 43
3 44
3 46
3 47
3 49
3 50
3 51
3 52
3 57
3 58
3 59
3 61
3 62
3 65
3 67
3 68
3 69
3 70
3 72
3 73
3 74
3 76
3 77
3 78
3 79
3 81
3 82
3 83
3 84
3 85
3 86
3 87
3 88
3 90
3 92
3 93
3 97
3 99
4 6
4 7
4 11
4 13
4 15
4 16
4 22
4 24
4 25
4 27
4 30
4 32
4 35
4 40
4 44
4 45
4 52
4 56
4 58
4 59
4 60
4 61
4 62
4 63
4 64
4 66
4 67
4 68
4 69
4 71
4 73
4 84
4 85
4 86
4 88
4 90
4 91
4 95
4 96
4 98
4 99
5 10
5 11
5 15
5 16
5 17
5 18
5 23
5 24
5 25
5 26
5 29
5 30
5 31
5 33
5 35
5 37
5 45
5 48
5 53
5 56
5 60
5 61
5 65
5 67
5 68
5 69
5 71
5 75
5 76
5 77
5 80
5 82
5 83
5 84
5 85
5 86
5 90
5 91
5 93
5 94
6 9
6 10
6 11
6 13
6 15
6 19
6 23
6 24
6 25
6 26
6 27
6 29
6 31
6 34
6 36
6 37
6 41
6 42
6 43
6 44
6 46
6 48
6 49
6 52
6 55
6 56
6 60
6 61
6 64
6 65
6 67
6 68
6 70
6 72
6 74
6 75
6 77
6 78
6 81
6 82
6 84
6 89
6 90
6 91
6 92
6 94
6 95
6 96
6 98
7 12
7 14
7 15
7 16
7 17
7 22
7 24
7 25
7 26
7 28
7 29
7 31
7 34
7 36
7 43
7 44
7 45
7 46
7 47
7 56
7 58
7 59
7 62
7 63
7 66
7 67
7 68
7 69
7 70
7 72
7 77
7 78
7 85
7 86
7 89
7 90
7 92
7 94
7 96
7 98
7 99
8 10
8 11
8 18
8 21
8 26
8 28
8 30
8 31
8 32
8 33
8 35
8 36
8 38
8 41
8 42
8 44
8 45
8 46
8 48
8 49
8 50
8 51
8 52
8 57
8 59
8 60
8 61
8 62
8 63
8 64
8 65
8 66
8 67
8 68
8 70
8 71
8 72
8 73
8 75
8 78
8 79
8 81
8 82
8 90
8 92
8 95
9 10
9 13
9 15
9 16
9 18
9 21
9 23
9 25
9 27
9 30
9 32
9 33
9 36
9 39
9 41
9 42
9 45
9 47
9 48
9 50
9 51
9 52
9 54
9 56
9 57
9 58
9 62
9 63
9 64
9 65
9 66
9 67
9 69
9 70
9 72
9 75
9 79
9 82
9 83
9 85
9 86
9 87
9 88
9 89
9 91
9 92
9 94
9 96
9 97
9 99
10 12
10 18
10 19
10 22
10 23
10 25
10 27
10 28
10 29
10 30
10 35
10 37
10 42
10 46
10 49
10 50
10 59
10 60
10 63
10 65
10 66
10 72
10 74
10 75
10 80
10 84
10 87
10 88
10 89
10 90
10 91
10 92
10 94
10 97
10 98
11 12
11 13
11 14
11 15
11 16
11 17
11 19
11 21
11 23
11 24
11 25
11 31
11 35
11 39
11 41
11 44
11 46
11 48
11 49
11 52
11 53
11 54
11 55
11 60
11 65
11 67
11 69
11 70
11 72
11 73
11 75
11 79
11 81
11 82
11 85
11 86
11 88
11 90
11 92
11 95
11 96
11 99
12 14
12 15
12 16
12 20
12 21
12 22
12 24
12 26
12 27
12 30
12 31
12 32
12 34
12 35
12 36
12 37
12 38
12 46
12 50
12 53
12 55
12 56
12 57
12 58
12 59
12 68
12 69
12 70
12 72
12 76
12 78
12 79
12 81
12 82
12 86
12 91
12 92
12 93
12 96
12 99
13 14
13 15
13 16
13 17
13 19
13 21
13 24
13 25
13 27
13 28
13 30
13 31
13 33
13 37
13 46
13 48
13 51
13 52
13 53
13 58
13 60
13 64
13 65
13 66
13 68
13 69
13 70
13 71
13 73
13 76
13 77
13 78
13 81
13 85
13 87
13 90
13 91
13 93
13 97
14 16
14 18
14 19
14 22
14 23
14 25
14 29
14 31
14 36
14 37
14 40
14 42
14 46
14 54
14 55
14 57
14 61
14 63
14 65
14 66
14 74
14 75
14 76
14 77
14 79
14 82
14 84
14 88
14 91
14 93
14 97
15 20
15 22
15 24
15 26
15 30
15 32
15 33
15 35
15 36
15 38
15 39
15 40
15 42
15 43
15 44
15 47
15 49
15 50
15 53
15 54
15 58
15 60
15 61
15 64
15 69
15 70
15 71
15 72
15 75
15 78
15 80
15 81
15 84
15 85
15 89
15 90
15 94
15 95
15 98
15 99
16 18
16 22
16 23
16 24
16 25
16 26
16 27
16 28
16 31
16 35
16 36
16 37
16 38
16 39
16 40
16 41
16 45
16 46
16 49
16 50
16 52
16 53
16 54
16 55
16 58
16 62
16 63
16 66
16 69
16 73
16 75
16 77
16 79
16 84
16 85
16 86
16 90
16 91
16 93
16 94
16 96
16 98
17 18
17 20
17 21
17 22
17 25
17 26
17 27
17 29
17 30
17 33
17 34
17 35
17 38
17 43
17 46
17 47
17 48
17 49
17 50
17 51
17 52
17 53
17 54
17 57
17 58
17 59
17 60
17 61
17 62
17 69
17 70
17 72
17 76
17 77
17 80
17 82
17 83
17 85
17 86
17 91
17 92
17 93
17 97
18 25
18 26
18 27
18 28
18 29
18 30
18 31
18 35
18 36
18 37
18 40
18 41
18 42
18 43
18 44
18 47
18 48
18 51
18 52
18 54
18 55
18 56
18 58
18 59
18 61
18 62
18 63
18 67
18 71
18 73
18 74
18 75
18 83
18 84
18 86
18 88
18 89
18 90
18 93
18 94
18 95
18 97
19 21
19 22
19 24
19 26
19 27
19 30
19 31
19 32
19 33
19 34
19 35
19 36
19 37
19 39
19 40
19 46
19 47
19 48
19 51
19 52
19 56
19 58
19 61
19 63
19 65
19 67
19 69
19 71
19 72
19 77
19 79
19 80
19 82
19 87
19 88
19 89
19 92
19 97
19 98
19 99
20 21
20 24
20 26
20 28
20 29
20 30
20 31
20 33
20 34
20 35
20 37
20 40
20 41
20 42
20 44
20 46
20 47
20 49
20 51
20 55
20 56
20 59
20 62
20 63
20 64
20 66
20 69
20 71
20 72
20 73
20 74
20 76
20 79
20 80
20 81
20 82
20 83
20 84
20 86
20 89
20 90
20 95
20 96
20 97
20 99
21 22
21 24
21 26
21 29
21 31
21 35
21 37
21 40
21 41
21 43
21 44
21 46
21 47
21 48
21 50
21 51
21 53
21 56
21 57
21 58
21 59
21 60
21 64
21 65
21 66
21 69
21 70
21 77
21 79
21 80
21 81
21 84
21 85
21 86
21 88
21 89
21 95
21 96
21 97
21 99
22 24
22 27
22 28
22 29
22 30
22 31
22 32
22 33
22 36
22 37
22 38
22 40
22 41
22 43
22 45
22 46
22 47
22 49
22 51
22 52
22 54
22 56
22 60
22 61
22 62
22 63
22 67
22 71
22 73
22 75
22 79
22 80
22 84
22 85
22 86
22 88
22 90
22 93
22 95
22 97
22 98
23 26
23 29
23 30
23 35
23 36
23 40
23 43
23 44
23 45
23 47
23 48
23 50
23 51
23 52
23 53
23 57
23 61
23 62
23 63
23 64
23 70
23 71
23 72
23 73
23 75
23 76
23 77
23 79
23 81
23 82
23 85
23 92
23 93
23 97
23 98
24 29
24 30
24 36
24 37
24 38
24 44
24 45
24 51
24 52
24 53
24 54
24 57
24 58
24 60
24 63
24 64
24 65
24 66
24 68
24 69
24 70
24 74
24 75
24 76
24 77
24 79
24 82
24 83
24 84
24 87
24 89
24 92
24 96
24 97
24 98
25 27
25 30
25 31
25 36
25 38
25 42
25 43
25 44
25 49
25 53
25 54
25 55
25 60
25 64
25 65
25 66
25 70
25 72
25 74
25 76
25 77
25 80
25 83
25 87
25 88
25 89
25 91
25 94
25 96
25 97
26 27
26 30
26 31
26 33
26 35
26 36
26 40
26 41
26 42
26 43
26 44
26 45
26 46
26 47
26 48
26 50
26 59
26 61
26 63
26 64
26 67
26 70
26 71
26 73
26 75
26 77
26 80
26 87
26 88
26 90
26 92
26 94
27 28
27 30
27 31
27 37
27 38
27 40
27 41
27 42
27 43
27 44
27 45
27 46
27 47
27 48
27 49
27 52
27 53
27 56
27 61
27 62
27 63
27 67
27 68
27 70
27 71
27 72
27 73
27 78
27 79
27 80
27 83
27 85
27 86
27 89
27 90
27 91
27 93
27 97
27 99
28 31
28 32
28 35
28 37
28 38
28 41
28 45
28 48
28 52
28 57
28 58
28 59
28 61
28 62
28 64
28 66
28 68
28 69
28 70
28 82
28 83
28 86
28 93
28 95
28 97
28 98
28 99
29 31
29 33
29 35
29 37
29 38
29 40
29 42
29 50
29 51
29 52
29 53
29 54
29 61
29 63
29 64
29 66
29 70
29 71
29 73
29 74
29 77
29 80
29 81
29 82
29 83
29 85
29 87
29 88
29 91
29 92
29 93
29 95
29 96
29 97
29 98
29 99
30 31
30 32
30 33
30 34
30 37
30 40
30 45
30 46
30 51
30 54
30 56
30 58
30 60
30 63
30 64
30 65
30 66
30 70
30 71
30 72
30 73
30 77
30 78
30 79
30 80
30 81
30 82
30 86
30 87
30 89
30 90
30 91
30 92
30 93
30 94
30 96
30 97
30 98
31 32
31 34
31 35
31 36
31 39
31 41
31 42
31 43
31 44
31 45
31 47
31 49
31 50
31 54
31 56
31 59
31 60
31 61
31 63
31 66
31 67
31 69
31 71
31 72
31 75
31 79
31 80
31 82
31 85
31 86
31 87
31 90
31 91
31 95
31 97
32 33
32 37
32 41
32 42
32 43
32 44
32 45
32 46
32 48
32 50
32 51
32 52
32 53
32 58
32 61
32 62
32 63
32 68
32 69
32 72
32 74
32 75
32 77
32 78
32 80
32 81
32 82
32 83
32 84
32 88
32 90
32 91
32 93
32 94
32 95
32 98
32 99
33 35
33 36
33 37
33 38
33 40
33 42
33 43
33 44
33 46
33 48
33 49
33 53
33 54
33 55
33 57
33 59
33 62
33 63
33 65
33 66
33 68
33 69
33 72
33 75
33 76
33 77
33 80
33 82
33 86
33 87
33 90
33 92
33 94
33 95
33 97
34 35
34 37
34 40
34 44
34 47
34 48
34 49
34 52
34 54
34 55
34 56
34 58
34 60
34 62
34 63
34 64
34 66
34 68
34 70
34 76
34 77
34 81
34 83
34 84
34 85
34 93
34 96
34 97
34 98
34 99
35 36
35 38
35 40
35 41
35 42
35 49
35 51
35 52
35 53
35 54
35 55
35 59
35 60
35 61
35 62
35 65
35 66
35 67
35 68
35 69
35 70
35 75
35 76
35 78
35 79
35 82
35 83
35 84
35 86
35 88
35 91
35 92
35 93
35 96
36 37
36 42
36 44
36 45
36 46
36 47
36 48
36 51
36 53
36 56
36 58
36 60
36 66
36 68
36 69
36 70
36 75
36 80
36 81
36 82
36 85
36 86
36 89
36 90
36 91
36 93
36 96
36 97
37 39
37 43
37 44
37 46
37 48
37 51
37 52
37 53
37 55
37 56
37 60
37 61
37 62
37 63
37 65
37 66
37 67
37 71
37 74
37 75
37 77
37 78
37 79
37 82
37 84
37 85
37 89
37 90
37 93
37 94
37 96
37 98
38 39
38 40
38 44
38 45
38 47
38 49
38 50
38 52
38 55
38 56
38 57
38 61
38 63
38 64
38 67
38 68
38 71
38 72
38 73
38 74
38 80
38 82
38 85
38 86
38 88
38 91
38 94
38 95
38 96
39 40
39 42
39 43
39 45
39 46
39 49
39 53
39 58
39 61
39 62
39 64
39 66
39 68
39 72
39 73
39 74
39 79
39 80
39 85
39 86
39 87
39 88
39 89
39 90
39 91
39 93
39 96
39 97
40 41
40 43
40 46
40 47
40 50
40 51
40 53
40 55
40 59
40 61
40 62
40 65
40 66
40 69
40 70
40 71
40 73
40 75
40 77
40 79
40 82
40 83
40 85
40 86
40 87
40 88
40 89
40 91
40 94
40 95
40 96
41 43
41 48
41 50
41 52
41 53
41 55
41 58
41 60
41 61
41 62
41 69
41 70
41 73
41 74
41 76
41 78
41 80
41 81
41 83
41 85
41 86
41 92
41 93
41 95
41 99
42 43
42 44
42 46
42 47
42 48
42 49
42 53
42 54
42 58
42 61
42 62
42 63
42 66
42 67
42 69
42 71
42 72
42 75
42 76
42 78
42 80
42 82
42 84
42 86
42 87
42 88
42 89
42 90
42 91
42 92
42 94
42 95
42 96
42 97
42 99
43 44
43 45
43 46
43 48
43 50
43 51
43 52
43 54
43 56
43 58
43 61
43 64
43 66
43 70
43 71
43 74
43 75
43 76
43 78
43 79
43 80
43 81
43 85
43 95
43 97
43 98
44 47
44 50
44 52
44 53
44 54
44 55
44 56
44 60
44 61
44 62
44 64
44 65
44 66
44 69
44 70
44 72
44 74
44 75
44 76
44 77
44 80
44 81
44 82
44 83
44 85
44 86
44 91
44 92
44 94
44 95
44 96
44 98
44 99
45 46
45 48
45 54
45 56
45 57
45 59
45 60
45 61
45 62
45 65
45 67
45 68
45 70
45 73
45 74
45 75
45 79
45 83
45 84
45 86
45 87
45 92
45 94
45 95
45 99
46 49
46 50
46 51
46 52
46 53
46 59
46 65
46 66
46 69
46 71
46 73
46 74
46 76
46 77
46 78
46 81
46 85
46 88
46 93
46 96
46 97
47 48
47 50
47 54
47 56
47 59
47 60
47 62
47 64
47 65
47 66
47 67
47 69
47 74
47 75
47 76
47 77
47 78
47 80
47 81
47 83
47 86
47 87
47 88
47 89
47 90
47 92
47 93
47 95
47 96
47 98
47 99
48 49
48 50
48 51
48 52
48 54
48 55
48 57
48 61
48 64
48 73
48 75
48 83
48 86
48 87
48 90
48 91
48 94
48 95
48 97
48 98
48 99
49 51
49 54
49 58
49 59
49 61
49 62
49 63
49 64
49 67
49 69
49 70
49 71
49 75
49 77
49 78
49 79
49 80
49 82
49 86
49 87
49 89
49 91
49 93
49 97
49 99
50 52
50 54
50 57
50 58
50 60
50 61
50 65
50 66
50 67
50 69
50 70
50 72
50 74
50 77
50 78
50 84
50 87
50 88
50 90
50 94
50 96
50 97
50 99
51 52
51 54
51 56
51 59
51 60
51 61
51 62
51 64
51 65
51 66
51 67
51 70
51 71
51 72
51 76
51 77
51 78
51 80
51 81
51 82
51 86
51 87
51 93
51 94
51 95
51 96
51 97
51 99
52 53
52 55
52 64
52 65
52 67
52 68
52 69
52 71
52 73
52 74
52 76
52 80
52 82
52 83
52 84
52 86
52 87
52 89
52 96
52 99
53 57
53 61
53 62
53 66
53 67
53 68
53 71
53 73
53 74
53 76
53 78
53 79
53 80
53 82
53 86
53 89
53 90
53 92
53 93
53 98
54 55
54 57
54 58
54 59
54 60
54 61
54 63
54 66
54 67
54 68
54 69
54 70
54 72
54 76
54 77
54 81
54 82
54 83
54 84
54 85
54 86
54 87
54 88
54 89
54 97
54 98
55 56
55 59
55 61
55 63
55 64
55 65
55 66
55 67
55 69
55 72
55 73
55 74
55 76
55 77
55 78
55 80
55 82
55 83
55 84
55 88
55 91
55 94
55 95
55 99
56 57
56 61
56 63
56 66
56 69
56 70
56 71
56 73
56 77
56 84
56 85
56 86
56 87
56 91
56 96
56 97
56 99
57 58
57 59
57 61
57 62
57 63
57 70
57 71
57 73
57 74
57 75
57 77
57 78
57 79
57 81
57 82
57 83
57 85
57 86
57 87
57 91
57 92
57 96
57 97
57 98
57 99
58 59
58 60
58 61
58 63
58 64
58 66
58 67
58 68
58 76
58 77
58 78
58 81
58 82
58 84
58 85
58 87
58 90
58 93
58 96
58 97
59 60
59 64
59 66
59 69
59 70
59 73
59 75
59 81
59 84
59 86
59 87
59 88
59 89
59 91
59 92
59 94
59 95
59 96
60 61
60 63
60 64
60 66
60 67
60 68
60 71
60 73
60 74
60 77
60 81
60 85
60 86
60 87
60 90
60 93
60 96
60 98
60 99
61 62
61 63
61 66
61 67
61 69
61 70
61 71
61 73
61 76
61 77
61 78
61 83
61 84
61 89
61 90
61 92
61 93
61 95
61 96
62 63
62 64
62 66
62 67
62 68
62 69
62 70
62 74
62 75
62 77
62 78
62 80
62 86
62 87
62 88
62 90
62 91
62 93
62 94
62 95
62 97
62 98
63 68
63 69
63 72
63 74
63 75
63 76
63 78
63 81
63 83
63 84
63 85
63 86
63 87
63 88
63 89
63 90
63 92
63 93
63 94
63 95
63 99
64 73
64 75
64 76
64 77
64 82
64 84
64 85
64 86
64 87
64 88
64 89
64 96
64 98
65 66
65 68
65 69
65 70
65 71
65 72
65 76
65 80
65 82
65 83
65 84
65 87
65 88
65 89
65 90
65 91
65 93
65 94
65 96
66 68
66 70
66 73
66 74
66 75
66 76
66 77
66 78
66 79
66 81
66 84
66 86
66 87
66 88
66 90
66 92
66 93
66 95
66 97
66 99
67 69
67 71
67 76
67 78
67 80
67 81
67 82
67 85
67 87
67 88
67 89
67 91
67 92
67 94
67 95
67 96
67 97
67 99
68 69
68 71
68 73
68 78
68 79
68 87
68 88
68 89
68 90
68 91
68 92
68 93
68 94
68 96
68 97
68 99
69 70
69 71
69 72
69 74
69 77
69 78
69 86
69 87
69 89
69 90
69 94
69 96
69 97
69 99
70 74
70 77
70 81
70 86
70 87
70 88
70 90
70 91
70 92
70 95
70 98
71 72
71 73
71 74
71 78
71 79
71 82
71 83
71 87
71 91
71 92
71 93
71 95
71 96
71 99
72 74
72 76
72 78
72 80
72 81
72 84
72 86
72 88
72 89
72 90
72 97
72 98
73 74
73 76
73 78
73 81
73 82
73 83
73 84
73 87
73 89
73 92
73 93
73 94
73 95
73 96
73 99
74 75
74 77
74 80
74 81
74 84
74 86
74 88
74 92
74 94
74 96
74 99
75 77
75 79
75 82
75 83
75 85
75 91
75 92
75 95
75 99
76 79
76 81
76 82
76 84
76 85
76 86
76 87
76 88
76 89
76 91
76 92
76 95
76 97
76 99
77 78
77 79
77 82
77 83
77 84
77 85
77 87
77 89
77 90
77 91
77 92
77 94
77 95
77 96
77 97
78 80
78 81
78 84
78 90
78 91
78 94
78 95
78 96
78 99
79 80
79 83
79 86
79 87
79 88
79 89
79 90
79 94
79 95
79 96
79 97
80 81
80 83
80 84
80 85
80 86
80 87
80 93
80 94
80 96
81 82
81 84
81 86
81 87
81 88
81 91
81 95
81 96
81 97
81 99
82 83
82 84
82 86
82 87
82 89
82 91
82 92
82 94
82 95
82 98
82 99
83 84
83 86
83 87
83 88
83 89
83 90
83 94
83 96
83 99
84 86
84 88
84 89
84 90
84 92
84 93
84 94
84 95
84 96
84 98
85 87
85 88
85 90
85 91
85 93
85 95
85 98
86 87
86 89
86 90
86 92
86 94
87 88
87 89
87 90
87 95
87 97
87 99
88 89
88 90
88 91
88 92
88 94
88 95
88 96
88 97
88 99
89 92
89 93
89 96
89 97
89 99
90 91
90 92
90 94
90 95
90 96
90 97
90 99
91 96
91 97
93 94
93 95
93 96
93 99
94 95
94 97
95 96
95 97
96 99
97 99
11 64 27 58 36 47 13 4 20 14 12 21 56 9 65 82 2 5 92 52 57 73 77 87 59
98 0 60 91 80 97 74 51 96 38 88 69 95 34 43 89 25 23 15 8 75 32 29 18 50
39 63 6 94 62 93 22 55 71 76 70 24 48 46 44 30 35 42 41 68 78 26 86 53 99
33 3 84 10 83 17 16 72 90 31 85 79 67 66 54 61 81 7 37 45 49 28 40 1 19
